Instance: E200-16b.dat
Class:  1
199 --- number of customers (no depot)
16 --- number of vehicles
199 --- number of items
Capacity - height - width of vehicles
   200     40     20
Node - x - y - demand  Readytime Duetime
  0.00   35.00  35.00   0.00 0       551.00
  1.00   41.00  49.00  10.00  98.00  123.00
  2.00   35.00  17.00   7.00 237.00  253.00
  3.00   55.00  45.00  13.00 243.00  264.00
  4.00   55.00  20.00  19.00 176.00  201.00
  5.00   15.00  30.00  26.00 107.00  122.00
  6.00   25.00  30.00   3.00 204.00  220.00
  7.00   20.00  50.00   5.00 318.00  338.00
  8.00   10.00  43.00   9.00  34.00   52.00
  9.00   55.00  60.00  16.00 237.00  264.00
 10.00   30.00  60.00  16.00 172.00  188.00
 11.00   20.00  65.00  12.00 302.00  324.00
 12.00   50.00  35.00  19.00 375.00  403.00
 13.00   30.00  25.00  23.00 426.00  453.00
 14.00   15.00  10.00  20.00 149.00  167.00
 15.00   30.00   5.00   8.00 101.00  130.00
 16.00   10.00  20.00  19.00 268.00  291.00
 17.00    5.00  30.00   2.00 276.00  299.00
 18.00   20.00  40.00  12.00 359.00  375.00
 19.00   15.00  60.00  17.00  39.00   54.00
 20.00   45.00  65.00   9.00  67.00   93.00
 21.00   45.00  20.00  11.00 109.00  130.00
 22.00   45.00  10.00  18.00 414.00  429.00
 23.00   55.00   5.00  29.00  69.00   92.00
 24.00   65.00  35.00   3.00 210.00  235.00
 25.00   65.00  20.00   6.00 135.00  152.00
 26.00   45.00  30.00  17.00 434.00  452.00
 27.00   35.00  40.00  16.00  22.00   52.00
 28.00   41.00  37.00  16.00 453.00  473.00
 29.00   64.00  42.00   9.00 383.00  406.00
 30.00   40.00  60.00  21.00  66.00   96.00
 31.00   31.00  52.00  27.00 444.00  471.00
 32.00   35.00  69.00  23.00 197.00  214.00
 33.00   53.00  52.00  11.00 175.00  204.00
 34.00   65.00  55.00  14.00 355.00  371.00
 35.00   63.00  65.00   8.00 313.00  342.00
 36.00    2.00  60.00   5.00 285.00  301.00
 37.00   20.00  20.00   8.00 115.00  144.00
 38.00    5.00   5.00  16.00 263.00  280.00
 39.00   60.00  12.00  31.00  70.00   87.00
 40.00   40.00  25.00   9.00  35.00   50.00
 41.00   42.00   7.00   5.00  25.00   50.00
 42.00   24.00  12.00   5.00 241.00  260.00
 43.00   23.00   3.00   7.00 422.00  450.00
 44.00   11.00  14.00  18.00 181.00  202.00
 45.00    6.00  38.00  16.00 323.00  343.00
 46.00    2.00  48.00   1.00 407.00  424.00
 47.00    8.00  56.00  27.00 400.00  417.00
 48.00   13.00  52.00  36.00 216.00  243.00
 49.00    6.00  68.00  30.00 301.00  324.00
 50.00   47.00  47.00  13.00 255.00  285.00
 51.00   49.00  58.00  10.00 367.00  383.00
 52.00   27.00  43.00   9.00 282.00  299.00
 53.00   37.00  31.00  14.00 201.00  226.00
 54.00   57.00  29.00  18.00 354.00  382.00
 55.00   63.00  23.00   2.00 319.00  349.00
 56.00   53.00  12.00   6.00  48.00   64.00
 57.00   32.00  12.00   7.00 170.00  189.00
 58.00   36.00  26.00  18.00  36.00   64.00
 59.00   21.00  24.00  28.00 242.00  262.00
 60.00   17.00  34.00   3.00  52.00   82.00
 61.00   12.00  24.00  13.00 406.00  429.00
 62.00   24.00  58.00  19.00 261.00  281.00
 63.00   27.00  69.00  10.00 235.00  261.00
 64.00   15.00  77.00   9.00  54.00   72.00
 65.00   62.00  77.00  20.00 433.00  457.00
 66.00   49.00  73.00  25.00 291.00  309.00
 67.00   67.00   5.00  25.00 387.00  410.00
 68.00   56.00  39.00  36.00  12.00   50.00
 69.00   37.00  47.00   6.00 399.00  422.00
 70.00   37.00  56.00   5.00 361.00  381.00
 71.00   57.00  68.00  15.00 314.00  330.00
 72.00   47.00  16.00  25.00 187.00  209.00
 73.00   44.00  17.00   9.00 131.00  157.00
 74.00   46.00  13.00   8.00 432.00  462.00
 75.00   49.00  11.00  18.00  73.00   99.00
 76.00   49.00  42.00  13.00 174.00  194.00
 77.00   53.00  43.00  14.00 350.00  365.00
 78.00   61.00  52.00   3.00  30.00   50.00
 79.00   57.00  48.00  23.00 143.00  167.00
 80.00   56.00  37.00   6.00  75.00   96.00
 81.00   55.00  54.00  26.00 139.00  161.00
 82.00   15.00  47.00  16.00 321.00  337.00
 83.00   14.00  37.00  11.00 285.00  303.00
 84.00   11.00  31.00   7.00 380.00  399.00
 85.00   16.00  22.00  41.00 292.00  309.00
 86.00    4.00  18.00  35.00 271.00  289.00
 87.00   28.00  18.00  26.00 218.00  237.00
 88.00   26.00  52.00   9.00 208.00  233.00
 89.00   26.00  35.00  15.00 140.00  160.00
 90.00   31.00  67.00   3.00 400.00  420.00
 91.00   15.00  19.00   1.00 202.00  221.00
 92.00   22.00  22.00   2.00 192.00  209.00
 93.00   18.00  24.00  22.00 249.00  274.00
 94.00   26.00  27.00  27.00  11.00   50.00
 95.00   25.00  24.00  20.00 139.00  164.00
 96.00   22.00  27.00  11.00  64.00   79.00
 97.00   25.00  21.00  12.00  54.00   80.00
 98.00   19.00  21.00  10.00 386.00  406.00
 99.00   20.00  26.00   9.00  13.00   50.00
100.00   18.00  18.00  17.00  49.00   67.00
101.00   37.00  52.00   7.00 305.00  334.00
102.00   49.00  49.00  30.00  26.00   50.00
103.00   52.00  64.00  16.00 120.00  147.00
104.00   20.00  26.00   9.00 122.00  138.00
105.00   40.00  30.00  21.00 147.00  165.00
106.00   21.00  47.00  15.00 363.00  384.00
107.00   17.00  63.00  19.00  66.00   86.00
108.00   31.00  62.00  23.00 257.00  279.00
109.00   52.00  33.00  11.00 228.00  257.00
110.00   51.00  21.00   5.00   7.00   50.00
111.00   42.00  41.00  19.00 137.00  152.00
112.00   31.00  32.00  29.00  17.00   50.00
113.00    5.00  25.00  23.00 153.00  172.00
114.00   12.00  42.00  21.00 236.00  258.00
115.00   36.00  16.00  10.00  75.00  100.00
116.00   52.00  41.00  15.00 409.00  433.00
117.00   27.00  23.00   3.00   3.00   50.00
118.00   17.00  33.00  41.00 361.00  389.00
119.00   13.00  13.00   9.00 426.00  445.00
120.00   57.00  58.00  28.00 170.00  185.00
121.00   62.00  42.00   8.00 319.00  343.00
122.00   42.00  57.00   8.00  37.00   54.00
123.00   16.00  57.00  16.00 115.00  132.00
124.00    8.00  52.00  10.00 118.00  145.00
125.00    7.00  38.00  28.00 383.00  398.00
126.00   27.00  68.00   7.00 170.00  193.00
127.00   30.00  48.00  15.00 318.00  341.00
128.00   43.00  67.00  14.00 233.00  260.00
129.00   58.00  48.00   6.00 134.00  155.00
130.00   58.00  27.00  19.00 199.00  222.00
131.00   37.00  69.00  11.00 193.00  215.00
132.00   38.00  46.00  12.00 227.00  255.00
133.00   46.00  10.00  23.00 236.00  255.00
134.00   61.00  33.00  26.00 205.00  225.00
135.00   62.00  63.00  17.00  43.00   58.00
136.00   63.00  69.00   6.00 420.00  446.00
137.00   32.00  22.00   9.00 163.00  178.00
138.00   45.00  35.00  15.00 150.00  168.00
139.00   59.00  15.00  14.00 428.00  444.00
140.00    5.00   6.00   7.00 441.00  470.00
141.00   10.00  17.00  27.00 295.00  312.00
142.00   21.00  10.00  13.00 131.00  148.00
143.00    5.00  64.00  11.00 345.00  365.00
144.00   30.00  15.00  16.00 355.00  382.00
145.00   39.00  10.00  10.00 367.00  388.00
146.00   32.00  39.00   5.00 312.00  331.00
147.00   25.00  32.00  25.00 144.00  172.00
148.00   25.00  55.00  17.00  80.00  106.00
149.00   48.00  28.00  18.00  30.00   52.00
150.00   56.00  37.00  10.00 120.00  146.00
151.00   22.00  22.00  18.00 411.00  440.00
152.00   36.00  26.00  26.00 344.00  362.00
153.00   21.00  45.00  11.00 221.00  242.00
154.00   45.00  35.00  30.00 244.00  274.00
155.00   55.00  20.00  21.00 288.00  309.00
156.00   33.00  34.00  19.00 161.00  177.00
157.00   50.00  50.00  15.00  24.00   50.00
158.00   55.00  45.00  16.00 329.00  345.00
159.00   26.00  59.00  29.00 155.00  174.00
160.00   40.00  66.00  26.00 293.00  308.00
161.00   55.00  65.00  37.00  85.00  101.00
162.00   35.00  51.00  16.00 302.00  318.00
163.00   62.00  35.00  12.00 274.00  302.00
164.00   62.00  57.00  31.00 123.00  145.00
165.00   62.00  24.00   8.00 213.00  229.00
166.00   21.00  36.00  19.00 210.00  227.00
167.00   33.00  44.00  20.00 237.00  253.00
168.00    9.00  56.00  13.00  53.00   75.00
169.00   62.00  48.00  15.00 394.00  420.00
170.00   66.00  14.00  22.00  49.00   69.00
171.00   44.00  13.00  28.00 411.00  435.00
172.00   26.00  13.00  12.00 429.00  444.00
173.00   11.00  28.00   6.00  24.00   50.00
174.00    7.00  43.00  27.00 239.00  268.00
175.00   17.00  64.00  14.00 443.00  469.00
176.00   41.00  46.00  18.00 176.00  200.00
177.00   55.00  34.00  17.00  37.00   58.00
178.00   35.00  16.00  29.00  31.00   61.00
179.00   52.00  26.00  13.00 114.00  137.00
180.00   43.00  26.00  22.00 100.00  124.00
181.00   31.00  76.00  25.00 223.00  242.00
182.00   22.00  53.00  28.00 452.00  467.00
183.00   26.00  29.00  27.00 223.00  244.00
184.00   50.00  40.00  19.00 408.00  429.00
185.00   55.00  50.00  10.00 336.00  356.00
186.00   54.00  10.00  12.00 252.00  281.00
187.00   60.00  15.00  14.00 259.00  288.00
188.00   47.00  66.00  24.00 237.00  263.00
189.00   30.00  60.00  16.00 302.00  325.00
190.00   30.00  50.00  33.00 191.00  209.00
191.00   12.00  17.00  15.00  27.00   50.00
192.00   15.00  14.00  11.00 447.00  471.00
193.00   16.00  19.00  18.00 313.00  336.00
194.00   21.00  48.00  17.00   8.00   50.00
195.00   50.00  30.00  21.00 174.00  190.00
196.00   51.00  42.00  27.00 257.00  274.00
197.00   50.00  15.00  19.00 395.00  410.00
198.00   48.00  21.00  20.00 317.00  345.00
199.00   12.00  38.00   5.00 125.00  143.00
Node - number of items - h - w for each item
    0   0
    1   2    7   10   33    3
    2   1   11    9
    3   1    8   14
    4   2    7   17   17    3
    5   1    9    5
    6   2   19    3   17    3
    7   1   18    7
    8   1    7   13
    9   2   10    9    8    4
   10   2    8   15   14    5
   11   1    7   12
   12   2   14   10   13    8
   13   2    4   10   12    4
   14   2   19    6   19    2
   15   1   24    3
   16   1   15    8
   17   2    8    9   16    7
   18   1   26    4
   19   1   18    9
   20   1    7   14
   21   1   21    4
   22   2    5   11   30    3
   23   1   28    2
   24   1   18    9
   25   2    6   13   23    3
   26   1   19    7
   27   2    7   12   34    3
   28   2    7   11   34    3
   29   1   12    9
   30   1    7    9
   31   1   15    5
   32   1   16    4
   33   1   13    7
   34   2   14    8    9    5
   35   2   17    6   15    6
   36   1   30    3
   37   1   16    8
   38   2    5   13   36    4
   39   2   12    5   36    4
   40   2   18    7   32    3
   41   2   16    8   10    6
   42   2    4   15   15    6
   43   1    4   16
   44   2    7   11   13    7
   45   2   24    4   36    3
   46   1   13    9
   47   2    4   17   34    3
   48   2    6   15    7   11
   49   1    4   12
   50   1   34    3
   51   2   10   10   21    3
   52   1   11    9
   53   1   19    3
   54   2    5   11   20    3
   55   1    7   14
   56   2   34    4   33    3
   57   2    5   10   11    7
   58   2    4   15    8   14
   59   1    6   16
   60   2    8    9    4    9
   61   2    9    7   18    4
   62   1   23    2
   63   1   22    3
   64   2    5   14    4   12
   65   2    7   11   29    2
   66   1   10    8
   67   1   24    3
   68   1    5   17
   69   1   35    4
   70   1   28    3
   71   2    5   15   17    8
   72   2   10    6   32    3
   73   1   24    3
   74   1   18    9
   75   1    5   11
   76   2    8   15    8   14
   77   1   32    3
   78   1   31    3
   79   2    8   13    4   10
   80   2    5   11   11    5
   81   2   13    6   36    3
   82   1   17    5
   83   1   15    4
   84   1    8   14
   85   1    5    8
   86   1   20    3
   87   2   12    6   10    6
   88   1    5   17
   89   2   11    9   19    4
   90   1    7   10
   91   1   20    3
   92   2   12    8   15    7
   93   2   18    5   32    3
   94   1    5    9
   95   1    8    7
   96   2   18    4   25    3
   97   1    5   12
   98   1   29    3
   99   1    6    9
  100   2    6    8   31    2
  101   2   16    8   16    8
  102   1   12    6
  103   2    7   15   15    5
  104   1    7   13
  105   2   23    4   29    3
  106   2   11    8   18    5
  107   2    7   15   16    2
  108   1    7   12
  109   2    5   15    7   11
  110   1   14    9
  111   2    5   10    9    6
  112   1   10   10
  113   2    6   18   11    7
  114   1   35    4
  115   2   23    4   34    3
  116   2   25    3   20    2
  117   1   33    4
  118   2    5   17    7   16
  119   2    8   10   27    2
  120   1    7   11
  121   1   14    7
  122   1    8   11
  123   2   10    5   19    3
  124   1   34    3
  125   1   28    2
  126   2   16    8   33    3
  127   2    7   11   29    4
  128   1    5   10
  129   1    5   17
  130   2    7   13   13    8
  131   2    7   17   19    9
  132   1   17    3
  133   2   18    3   33    2
  134   2    7    9   24    3
  135   1    4   13
  136   1   14    4
  137   2   35    3   27    2
  138   1    4    9
  139   1   18    8
  140   2   34    3   22    3
  141   2    5   15   18    9
  142   1    5   15
  143   2   16    8   16    8
  144   2    7   12   16    7
  145   2    7   17   11    5
  146   2   28    3   22    3
  147   1   26    4
  148   2    8   11    8    9
  149   1   10    7
  150   2    7   15    7    9
  151   2   17    7    9    7
  152   1   21    3
  153   2    4   18    4   13
  154   2    8   18   35    2
  155   1    5   14
  156   2   10    8   11    6
  157   2   15    8   18    4
  158   1   22    4
  159   1   20    8
  160   1   33    4
  161   2   16    5   34    3
  162   2   25    3   18    3
  163   2    9    6   25    2
  164   1   17    6
  165   1   35    2
  166   2    5   17   16    7
  167   2   11    9   22    4
  168   2   13    9   16    5
  169   1   21    2
  170   2    6   14   14    5
  171   2    5   18   17    2
  172   2    7   11   36    3
  173   2    5   10   11    6
  174   1    6   16
  175   1   32    2
  176   1   18    4
  177   1   18    3
  178   2    7   18    8   12
  179   1    7   17
  180   1   18    7
  181   2   18    7   17    5
  182   2   29    4   17    3
  183   2   31    4   18    4
  184   1   17    4
  185   2   11    8   18    3
  186   1    8    5
  187   1   35    4
  188   2   19   10   33    2
  189   1    7    8
  190   1   20    4
  191   2    7   11    6    9
  192   2    5   16    4   15
  193   2   12    8   32    4
  194   2   14    9   33    3
  195   2   16    8   12    7
  196   1   14    7
  197   1   35    3
  198   1   30    3
  199   2   12    6   33    2
